500
1000
265
265
264
264
264
262
262
261
259
259
258
256
255
255
254
254
254
253
252
251
250
250
250
250
250
248
248
247
247
247
246
246
246
245
244
243
243
243
242
242
242
242
242
242
242
240
240
240
240
237
237
236
236
236
235
234
233
233
232
232
232
231
230
230
230
230
229
229
228
227
227
226
226
225
225
225
223
222
222
222
222
222
221
221
220
220
220
220
220
219
219
219
219
219
219
218
218
218
217
217
215
215
215
215
215
215
214
213
213
213
212
212
211
211
209
209
208
207
206
206
205
205
204
204
204
204
204
204
204
203
202
201
200
200
199
199
199
199
198
196
196
195
194
193
193
192
192
191
191
191
189
189
189
189
189
189
188
188
187
186
186
185
185
184
184
183
183
182
182
181
181
181
180
179
178
178
178
178
178
177
177
177
176
175
175
175
173
173
173
172
171
171
171
171
170
170
168
168
167
166
166
166
166
164
164
164
163
163
162
162
162
161
161
160
159
159
159
158
157
157
156
155
155
155
153
152
152
152
151
151
151
151
149
149
149
149
148
148
148
147
147
147
146
146
146
145
145
145
144
143
143
142
141
141
141
141
141
140
140
140
139
139
138
138
138
136
135
135
135
135
135
133
133
132
132
132
132
131
131
131
131
130
130
129
129
129
128
128
128
128
128
127
127
127
125
125
125
123
123
122
121
120
120
117
117
116
115
114
114
110
110
109
109
109
108
108
106
105
105
105
104
104
104
103
101
101
101
101
101
100
100
99
99
99
99
98
97
97
96
96
94
94
94
93
93
93
92
92
91
91
91
91
91
91
90
90
89
89
88
87
87
87
87
87
87
86
85
84
84
83
82
81
81
81
80
80
79
79
78
78
76
75
74
74
74
73
73
73
72
72
71
70
70
70
70
69
69
68
68
67
67
66
65
64
64
64
62
62
61
61
60
59
58
58
57
56
55
55
54
53
53
53
53
51
51
51
51
51
51
50
50
50
49
49
49
48
48
48
47
47
47
46
45
45
44
43
43
42
42
42
42
42
40
39
39
38
37
37
37
36
35
34
33
32
32
32
31
31
31
30
28
28
28
27
27
26
26
26
25
25
24
24
22
21
21
21
21
20
20
18
18
18
18
17
17
17
17
16
16
16
